************************************************************************
file with basedata            : J12056_.BAS
initial value random generator: 455111738
************************************************************************
projects                      :  1
jobs (incl. supersource/sink ):  122
horizon                       :  677
RESOURCES
  - renewable                 :  4   R
  - nonrenewable              :  0   N
  - doubly constrained        :  0   D
************************************************************************
PROJECT INFORMATION:
pronr.  #jobs rel.date duedate tardcost  MPM-Time
    1    120      0      117       51      117
************************************************************************
PRECEDENCE RELATIONS:
jobnr.    #modes  #successors   successors
   1        1          3           2   3   4
   2        1          3           6  21  38
   3        1          3           9  12  19
   4        1          3           5  25  67
   5        1          3           7  59  82
   6        1          3          13  16  44
   7        1          3           8  17  23
   8        1          3          15  22  38
   9        1          3          10  11  37
  10        1          3          43  46  75
  11        1          3          14  20  27
  12        1          3          57  65 118
  13        1          1          60
  14        1          3          18  24  33
  15        1          3          28  48  77
  16        1          3          42  55 102
  17        1          3          32  43  79
  18        1          3          26  29  31
  19        1          3          29  36 107
  20        1          3          59  84 115
  21        1          2          30  77
  22        1          3          36  52 104
  23        1          3          31  57  58
  24        1          3          34  40  92
  25        1          3          65  85 114
  26        1          1          82
  27        1          2          35  81
  28        1          2          41  50
  29        1          3          50  66  86
  30        1          3          64  75  94
  31        1          3          39  66 108
  32        1          3          37  40  44
  33        1          3          42  43  54
  34        1          2          54  70
  35        1          3          54  61  63
  36        1          3          37  49  63
  37        1          2          51  66
  38        1          3          69  70  94
  39        1          3          40  45  61
  40        1          3          50  51 116
  41        1          2          69  74
  42        1          3          56  77 100
  43        1          1          85
  44        1          3          48  52  53
  45        1          2          47  62
  46        1          2          49  56
  47        1          3          69  79  83
  48        1          3          68  78  87
  49        1          1          88
  50        1          2          80 106
  51        1          2          68  89
  52        1          3          71  72 121
  53        1          1          72
  54        1          3          76  79  87
  55        1          2          73  74
  56        1          3          65  67  98
  57        1          2          80 102
  58        1          2          72  93
  59        1          1         111
  60        1          3          63  67 107
  61        1          3          76  90  98
  62        1          3          84  94 105
  63        1          3          90  99 109
  64        1          3          91  95 110
  65        1          3          74 109 113
  66        1          3          73  91 101
  67        1          1          70
  68        1          2          76  80
  69        1          3          73  84  85
  70        1          1         106
  71        1          3          89  93  99
  72        1          2          96  99
  73        1          2          78  89
  74        1          3          78  86 104
  75        1          3          83  92  95
  76        1          1          83
  77        1          2          91 115
  78        1          1         117
  79        1          2          97 101
  80        1          1          96
  81        1          2          82  87
  82        1          2          93 108
  83        1          2          88 118
  84        1          1          95
  85        1          3          86  92 109
  86        1          2          88 119
  87        1          1         103
  88        1          1         120
  89        1          2          90  96
  90        1          1         105
  91        1          1         106
  92        1          1         111
  93        1          1         103
  94        1          1          97
  95        1          2          97 101
  96        1          2         100 103
  97        1          3          98 100 102
  98        1          1         107
  99        1          1         108
 100        1          1         112
 101        1          2         112 118
 102        1          2         104 111
 103        1          2         105 120
 104        1          1         116
 105        1          2         110 112
 106        1          1         113
 107        1          1         116
 108        1          2         110 114
 109        1          1         117
 110        1          1         115
 111        1          1         113
 112        1          1         114
 113        1          1         117
 114        1          1         119
 115        1          1         119
 116        1          1         120
 117        1          1         121
 118        1          1         121
 119        1          1         122
 120        1          1         122
 121        1          1         122
 122        1          0        
************************************************************************
REQUESTS/DURATIONS:
jobnr. mode duration  R 1  R 2  R 3  R 4
------------------------------------------------------------------------
  1      1     0       0    0    0    0
  2      1     2       6    1    3    7
  3      1     4       6    8    9    3
  4      1     9       8   10    9    2
  5      1     4       1    5    8    5
  6      1     7       7    5    6    3
  7      1    10       7    5    3    6
  8      1     9       9    9    2    9
  9      1     8       8    7   10    4
 10      1     3       8    8    9   10
 11      1     8       8    2    7    9
 12      1     5       5    8    1    9
 13      1     2       3    3    5    9
 14      1     6      10    1   10    5
 15      1     4       8    8   10    4
 16      1     2       3    8    8   10
 17      1    10      10    8   10    8
 18      1     4       4    8    8   10
 19      1     5       2    5    5    4
 20      1     4       1    3    2    2
 21      1     6       6   10    3    9
 22      1    10       6    3    7    9
 23      1     4       8    7   10    6
 24      1     9       4    1   10    9
 25      1     9       9    2    5    9
 26      1     4       1    2    5    2
 27      1     7       1    5    1    8
 28      1     4       1    9    4    5
 29      1     5       3   10    3   10
 30      1     4       4    1    6    4
 31      1     7       1    9    2   10
 32      1     5       4    8   10    3
 33      1     8       6    1    3    9
 34      1     7       2    4    3    3
 35      1     3       2    6    8   10
 36      1     7       6    1    8    4
 37      1     9       1    9   10    8
 38      1     9       4    2    5    5
 39      1    10       2    6    1    6
 40      1     7       8    1    2    2
 41      1     1       2    2    1    3
 42      1     4       9    4    4    1
 43      1     5       9    3    2    7
 44      1    10       4    9    6    6
 45      1     7       1    5    2    2
 46      1     2       9   10    5    1
 47      1     7       6    8    6    9
 48      1     5      10    3    1    7
 49      1     9       8    9    8    5
 50      1     3       3    8    9    1
 51      1     5       8   10    1    5
 52      1     7       7    6    5    8
 53      1     4       4    7    3    4
 54      1     9       7    1    3    3
 55      1     3       2    3    5    2
 56      1     6       5    1    1    6
 57      1     7       1    6   10   10
 58      1     9       9    6   10    6
 59      1     2       4   10    1    5
 60      1     2       8    1    4    3
 61      1     6       2    9    6    7
 62      1     4       1    8    7    3
 63      1     4       5    9    9    9
 64      1     9       4    1    6    3
 65      1     6       2    4    3    8
 66      1     1       7    7    3    9
 67      1     6       1    8    5    4
 68      1    10       5    9    4    3
 69      1     6       2    1    3    2
 70      1    10       4    9    9    2
 71      1     4       7    2    4    7
 72      1     4       6    9    2    5
 73      1     6       4    2    8    7
 74      1     9       5    3    9    8
 75      1     2       3   10   10    1
 76      1     5       9    3    4    7
 77      1     2       7    8    3   10
 78      1     9       3    5    7    9
 79      1    10       7    7    2    3
 80      1     1       6    7    5    3
 81      1     3       5    7   10    7
 82      1     8       5    6    8    8
 83      1     8       6    6    2    2
 84      1     5       2    8    4    3
 85      1    10       4    9    5    8
 86      1     4      10    3    9    5
 87      1     5       6    3    7    2
 88      1     4       3    1    7    9
 89      1     2       4    7    7    6
 90      1     6       9    9    3    8
 91      1     3       6    7    4   10
 92      1    10       1    2    8    9
 93      1     2       8   10    3    8
 94      1     7       7    4    1    7
 95      1     5       9    4    5    5
 96      1    10       8   10   10   10
 97      1     5       9    4    5    4
 98      1     1       7    8    3    5
 99      1     4       5   10    3   10
100      1     2       7    1    2    5
101      1     1       1    1    2    5
102      1    10       9    8    8    2
103      1     6       3    1    5    7
104      1     9      10    3    1    1
105      1     2       3    3   10    1
106      1     8       1    4    4    4
107      1     7       7   10    3    8
108      1     1      10    9    6    6
109      1     6       1    9    6    9
110      1     9       4    2    1    1
111      1     1      10    9    8    7
112      1     3       7    2    3    1
113      1     4       7    7    9    6
114      1     2       4    5   10    4
115      1     9       7    9    7    4
116      1     8       7    5    3    5
117      1    10       3    7    6    8
118      1     3       9    8    6    3
119      1     1       9    8    2    2
120      1     8       2    7    7    6
121      1     4       2    2   10    3
122      1     0       0    0    0    0
************************************************************************
RESOURCEAVAILABILITIES:
  R 1  R 2  R 3  R 4
   15   16   17   17
************************************************************************
